0 2083
1 1862
2 1862
3 1807
4 1807
5 1807
6 1727
7 1727
8 1727
9 1716
10 1674
11 1666
12 1666
13 1489
14 1489
15 1489
16 1489
17 1437
18 1379
19 1379
20 1371
21 1371
22 1319
23 1319
24 1319
25 1319
26 1319
27 1319
28 1319
29 1319
30 1319
31 1319
32 1319
33 1319
34 1319
35 1298
36 1298
37 1298
38 1298
39 1298
40 1298
41 1298
42 1298
43 1298
44 1298
45 1298
46 1258
47 1258
48 1258
49 1258
50 1236
51 1236
52 1236
53 1236
54 1233
55 1233
56 1233
57 1233
58 1233
59 1233
60 1183
61 1183
62 1183
63 1183
64 1178
65 1178
66 1178
67 1178
68 1178
69 1178
70 1178
71 1170
72 1170
73 1170
74 1170
75 1154
76 1154
77 1154
78 1154
79 1154
80 1154
81 1135
82 1135
83 1131
84 1131
85 1131
86 1128
87 1128
88 1128
89 1128
90 1128
91 1128
92 1128
93 1128
94 1128
95 1128
96 1063
97 1063
98 1063
99 1063
100 1063
101 1043
102 1043
103 1043
104 1043
105 1043
106 1007
107 1007
108 984
109 984
110 984
111 984
112 984
113 984
114 984
115 984
116 984
117 984
118 984
119 984
120 984
121 984
122 984
123 984
124 984
125 984
126 984
127 984
128 984
129 981
130 981
131 981
132 981
133 981
134 981
135 981
136 978
137 978
138 978
139 978
140 970
141 970
142 970
143 970
144 970
145 970
146 970
147 970
148 970
149 970
150 970
151 970
152 970
153 969
154 966
155 966
156 966
157 966
158 966
159 966
160 965
161 965
162 965
163 965
164 965
165 955
166 955
167 952
168 952
169 952
170 952
171 952
172 952
173 952
174 952
175 952
176 952
177 952
178 952
179 940
180 940
181 940
182 940
183 940
184 940
185 940
186 940
187 940
188 940
189 940
190 940
191 940
192 940
193 940
194 937
195 937
196 937
197 937
198 937
199 937
200 937
201 937
202 937
203 937
204 937
205 937
206 937
207 937
208 937
209 937
210 937
211 937
212 937
213 937
214 937
215 937
216 937
217 937
218 936
219 936
220 929
221 929
222 929
223 929
224 926
225 926
226 926
227 926
228 926
229 926
230 926
231 926
232 926
233 926
234 926
235 926
236 926
237 926
238 926
239 923
240 923
241 923
242 923
243 917
244 917
245 917
246 917
247 917
248 917
249 917
250 917
251 917
252 916
253 916
254 916
255 916
256 916
257 916
258 916
259 916
260 916
261 916
262 916
263 916
264 916
265 916
266 916
267 916
268 916
269 916
270 916
271 916
272 914
273 914
274 914
275 914
276 914
277 914
278 914
279 914
280 913
281 913
282 913
283 913
284 913
285 913
286 913
287 913
288 913
289 913
290 913
291 913
292 913
293 913
294 913
295 913
296 913
297 913
298 913
299 913
300 913
301 913
302 913
303 913
304 913
305 913
306 913
307 913
308 913
309 913
310 913
311 913
312 913
313 913
314 913
315 913
316 913
317 911
318 911
319 911
320 911
321 911
322 911
323 911
324 911
325 911
326 911
327 911
328 911
329 911
330 911
331 911
332 911
333 910
334 910
335 910
336 910
337 910
338 910
339 910
340 910
341 910
342 910
343 908
344 908
345 908
346 908
347 908
348 908
349 908
350 908
351 908
352 908
353 908
354 908
355 908
356 908
357 908
358 908
359 908
360 908
361 908
362 908
363 908
364 908
365 908
366 908
367 908
368 908
369 908
370 908
371 908
372 908
373 908
374 908
375 908
376 908
377 908
378 908
379 908
380 908
381 908
382 908
383 908
384 908
385 908
386 908
387 908
388 908
389 908
390 908
391 908
392 908
393 908
394 908
395 908
396 908
397 908
398 908
399 908
400 908
401 908
402 908
403 908
404 908
405 908
406 908
407 908
408 908
409 908
410 908
411 908
412 908
413 908
414 908
415 908
416 908
417 908
418 908
419 908
420 908
421 908
422 908
423 908
424 908
425 908
426 908
427 908
428 908
429 908
430 908
431 908
432 908
433 908
434 908
435 908
436 908
437 908
438 908
439 908
440 908
441 908
442 908
443 908
444 908
445 908
446 908
447 908
448 908
449 908
450 908
451 908
452 908
453 908
454 908
455 908
456 908
457 908
458 908
459 908
460 908
461 908
462 908
463 908
464 908
465 908
466 908
467 908
468 908
469 908
470 908
471 908
472 908
473 908
474 908
475 908
476 908
477 908
478 908
479 908
480 908
481 908
482 908
483 908
484 907
485 907
486 907
487 907
488 907
489 907
490 907
491 907
492 907
493 907
494 907
495 907
496 907
497 907
498 907
499 907
500 907
501 907
502 907
503 907
504 907
505 907
506 907
507 907
508 893
509 893
510 893
511 893
512 893
513 893
514 893
515 893
516 893
517 893
518 893
519 893
520 893
521 893
522 893
523 893
524 893
525 893
526 893
527 893
528 893
529 893
530 893
531 893
532 893
533 893
534 893
535 893
536 893
537 893
538 893
539 893
540 893
541 893
542 893
543 893
544 893
545 893
546 893
547 893
548 893
549 893
550 893
551 893
552 893
553 893
554 893
555 893
556 893
557 893
558 893
559 893
560 893
561 893
562 893
563 893
564 893
565 893
566 893
567 893
568 893
569 893
570 893
571 893
572 893
573 893
574 893
575 893
576 893
577 893
578 893
579 893
580 893
581 893
582 893
583 893
584 893
585 893
586 893
587 893
588 893
589 893
590 893
591 893
592 893
593 893
594 893
595 893
596 893
597 893
598 893
599 893
600 893
601 893
602 893
603 893
604 893
605 893
606 893
607 893
608 893
609 893
610 893
611 893
612 893
613 893
614 893
615 893
616 893
617 893
618 893
619 893
620 893
621 893
622 893
623 893
624 893
625 893
626 893
627 893
628 893
629 893
630 893
631 893
632 893
633 893
634 893
635 893
636 893
637 893
638 893
639 893
640 893
641 893
642 893
643 893
644 893
645 893
646 893
647 893
648 893
649 893
650 893
651 893
652 893
653 893
654 893
655 893
656 893
657 893
658 893
659 893
660 893
661 893
662 893
663 893
664 893
665 893
666 893
667 893
668 891
669 891
670 891
671 891
672 891
673 891
674 891
675 891
676 891
677 891
678 891
679 891
680 891
681 891
682 891
683 891
684 891
685 891
686 891
687 891
688 891
689 891
690 891
691 891
692 891
693 891
694 891
695 891
696 891
697 891
698 891
699 891
700 891
701 891
702 891
703 891
704 891
705 891
706 891
707 891
708 891
709 891
710 891
711 891
712 891
713 891
714 891
715 891
716 891
717 891
718 891
719 891
720 891
721 891
722 891
723 891
724 891
725 891
726 891
727 891
728 891
729 891
730 891
731 891
732 891
733 891
734 891
735 891
736 891
737 891
738 831
739 831
740 831
741 831
742 831
743 831
744 831
745 831
746 831
747 831
748 824
749 824
750 824
751 824
752 824
753 824
754 824
755 824
756 824
757 824
758 824
759 824
760 824
761 814
762 814
763 814
764 814
765 814
766 807
767 807
768 807
769 807
770 806
771 806
772 806
773 806
774 806
775 806
776 806
777 806
778 806
779 790
780 790
781 790
782 790
783 790
784 790
785 790
786 790
787 790
788 790
789 790
790 790
791 790
792 790
793 790
794 790
795 790
796 790
797 790
798 790
799 790
800 790
801 790
802 790
803 790
804 790
805 790
806 790
807 790
808 790
809 790
810 790
811 790
812 790
813 790
814 790
815 790
816 790
817 790
818 790
819 790
820 790
821 790
822 790
823 790
824 790
825 790
826 790
827 790
828 790
829 790
830 790
831 790
832 790
833 790
834 790
835 790
836 790
837 790
838 790
839 790
840 790
841 790
842 790
843 790
844 790
845 790
846 790
847 790
848 790
849 790
850 790
851 790
852 790
853 790
854 790
855 790
856 790
857 790
858 790
859 790
860 790
861 790
862 790
863 790
864 790
865 790
866 790
867 790
868 790
869 790
870 790
871 790
872 790
873 790
874 790
875 790
876 790
877 790
878 790
879 790
880 790
881 790
882 790
883 790
884 790
885 790
886 790
887 790
888 790
889 790
890 790
891 790
892 790
893 790
894 790
895 790
896 790
897 790
898 790
899 790
900 790
901 790
902 790
903 790
904 790
905 790
906 790
907 790
908 790
909 790
910 790
911 790
912 790
913 790
914 790
915 790
916 790
917 790
918 790
919 790
920 790
921 790
922 790
923 790
924 790
925 790
926 790
927 790
928 790
929 790
930 790
931 790
932 790
933 790
934 790
935 790
936 790
937 790
938 790
939 790
940 790
941 790
942 790
943 790
944 790
945 790
946 790
947 790
948 790
949 790
950 790
951 790
952 790
953 790
954 790
955 790
956 790
957 790
958 790
959 790
960 790
961 790
962 790
963 790
964 790
965 790
966 790
967 790
968 790
969 790
970 790
971 790
972 790
973 790
974 790
975 790
976 790
977 790
978 790
979 790
980 790
981 790
982 790
983 790
984 790
985 790
986 790
987 790
988 790
989 790
990 790
991 790
992 790
993 790
994 790
995 790
996 790
997 790
998 790
999 790
Best: [[28,25,15],
       [27,8,14,18,20,32,22],
       [19,9,12,5,29,24,3,4,7],
       [13,2,17,31],
       [21,30,23,10,16,11,26,6]], fitness: 790
